61
100
80	5
79	6
78	7
77	6
76	1
75	5
74	8
73	3
72	7
71	9
70	7
69	6
68	4
67	4
66	4
65	6
64	2
63	6
62	3
61	6
60	5
59	7
58	5
57	6
56	2
55	5
54	4
53	5
52	5
51	3
50	2
49	7
48	7
47	2
46	3
45	7
44	8
43	3
42	5
41	4
40	1
39	3
38	3
37	3
36	9
35	4
34	6
33	4
32	4
31	6
30	2
29	2
28	10
27	5
26	6
25	9
24	3
23	1
22	6
21	6
20	7
